; 
(set-info :status unknown)
(declare-fun standard_metadata.ingress_port () (_ BitVec 9))
(assert
 (let (($x46 (= standard_metadata.ingress_port (_ bv1 9))))
 (or (or false (= standard_metadata.ingress_port (_ bv0 9))) $x46)))
(assert
 (and (and (not (or false false)) true) (= (- 1) (- 1))))
(check-sat)

